NAME : amz1900.129892_129892.tour
COMMENT : Cost = 129892_129892
COMMENT : Found by LKH-AMZ [Keld Helsgaun] Sun May 11 13:32:47 2025
COMMENT : TW viol.: 0 #: 0
TYPE : TOUR
DIMENSION : 162
TOUR_SECTION
143
151
27
19
150
123
128
148
160
55
102
158
95
12
87
57
142
121
41
2
67
22
119
39
134
76
133
77
17
70
110
4
96
108
131
130
50
34
85
122
103
45
63
43
48
141
91
49
68
72
73
8
92
162
154
145
115
156
59
46
113
161
47
98
69
37
117
83
10
60
6
53
62
90
114
80
9
15
51
106
97
107
65
159
138
21
81
140
86
84
1
66
126
58
93
38
61
11
56
116
75
13
28
23
152
157
118
54
153
52
124
25
112
129
101
29
155
14
26
33
111
120
139
109
30
136
42
16
105
125
100
89
147
99
32
78
5
64
7
132
20
44
82
127
40
137
18
35
144
36
104
146
79
74
31
3
94
149
135
88
71
24
-1
EOF
